/* Przyklad 2 z materialow do wykladu */
/* Przyklad ilustruje sytuacje, ze istnieje nieskonczenie wiele rozwiazan */
/* Funkcja celu */
max: 4 x1 +3 x2;

/* Ograniczenia */
ograniczenie_nr_1:   x1  + 2 x2 <= 40;
ograniczenie_nr_2: 4 x1  + 3 x2 <= 120;
/* domyslnie zmienne x1 i x2 sa rzeczywiste nieujemne */